benchmarks_CP/INST_49x49/40/inst49x49_40_70.dzn
S=7;
start=[|
38,	30,	49,	23,	5,	-1,	35,	-1,	9,	16,	-1,	-1,	-1,	-1,	-1,	-1,	-1,	4,	-1,	41,	-1,	17,	-1,	-1,	-1,	-1,	24,	-1,	39,	15,	-1,	-1,	-1,	-1,	-1,	19,	18,	-1,	28,	14,	-1,	20,	-1,	-1,	8,	-1,	26,	10,	34|
-1,	24,	-1,	-1,	-1,	-1,	19,	-1,	-1,	37,	-1,	39,	-1,	-1,	-1,	35,	49,	-1,	8,	5,	25,	18,	7,	47,	-1,	-1,	2,	33,	-1,	-1,	-1,	23,	10,	-1,	-1,	-1,	42,	-1,	-1,	44,	-1,	-1,	-1,	20,	48,	4,	-1,	1,	-1|
-1,	-1,	3,	-1,	10,	-1,	4,	-1,	-1,	22,	-1,	26,	-1,	29,	-1,	32,	36,	-1,	-1,	39,	-1,	12,	-1,	-1,	31,	34,	44,	25,	-1,	-1,	-1,	-1,	-1,	-1,	-1,	43,	-1,	-1,	-1,	41,	37,	15,	-1,	40,	28,	33,	-1,	-1,	5|
-1,	-1,	-1,	-1,	-1,	46,	22,	-1,	20,	18,	-1,	24,	32,	-1,	-1,	-1,	-1,	30,	-1,	-1,	21,	-1,	-1,	45,	-1,	41,	-1,	40,	6,	43,	-1,	42,	-1,	-1,	-1,	38,	-1,	-1,	13,	-1,	-1,	-1,	31,	44,	11,	-1,	-1,	-1,	19|
-1,	20,	42,	-1,	-1,	-1,	-1,	-1,	-1,	7,	45,	19,	-1,	-1,	-1,	-1,	-1,	-1,	-1,	-1,	-1,	35,	22,	48,	-1,	10,	-1,	-1,	-1,	-1,	-1,	-1,	-1,	-1,	31,	46,	8,	-1,	-1,	33,	24,	29,	12,	-1,	-1,	-1,	25,	-1,	-1|
-1,	-1,	1,	-1,	-1,	-1,	-1,	49,	42,	-1,	41,	-1,	-1,	-1,	-1,	20,	-1,	-1,	-1,	46,	43,	21,	-1,	-1,	29,	26,	19,	-1,	18,	37,	-1,	-1,	5,	-1,	40,	-1,	-1,	-1,	-1,	9,	16,	-1,	13,	-1,	-1,	-1,	-1,	-1,	32|
-1,	-1,	-1,	-1,	16,	-1,	33,	1,	-1,	25,	15,	-1,	-1,	-1,	18,	9,	22,	-1,	-1,	-1,	27,	-1,	-1,	-1,	6,	20,	-1,	-1,	17,	-1,	24,	38,	-1,	-1,	-1,	23,	39,	-1,	11,	-1,	-1,	2,	-1,	-1,	-1,	41,	-1,	-1,	35|
14,	2,	-1,	26,	-1,	-1,	-1,	12,	-1,	-1,	-1,	-1,	-1,	-1,	-1,	11,	-1,	-1,	42,	-1,	-1,	-1,	16,	21,	22,	28,	-1,	-1,	-1,	-1,	49,	-1,	30,	-1,	17,	10,	-1,	-1,	23,	-1,	-1,	-1,	38,	18,	41,	-1,	-1,	5,	-1|
-1,	-1,	-1,	-1,	-1,	-1,	43,	-1,	-1,	36,	13,	-1,	-1,	-1,	27,	3,	25,	-1,	-1,	37,	-1,	-1,	33,	-1,	-1,	-1,	-1,	-1,	15,	-1,	28,	-1,	12,	-1,	-1,	-1,	-1,	-1,	14,	-1,	-1,	-1,	-1,	-1,	44,	-1,	-1,	26,	-1|
-1,	-1,	-1,	-1,	23,	15,	30,	-1,	28,	1,	-1,	29,	19,	37,	-1,	-1,	10,	-1,	-1,	24,	-1,	-1,	-1,	-1,	-1,	13,	25,	-1,	33,	-1,	11,	-1,	40,	-1,	-1,	-1,	-1,	-1,	49,	-1,	-1,	9,	-1,	-1,	-1,	47,	-1,	45,	31|
-1,	13,	-1,	-1,	-1,	8,	-1,	-1,	-1,	41,	-1,	-1,	-1,	-1,	-1,	-1,	-1,	-1,	-1,	-1,	-1,	3,	10,	-1,	-1,	-1,	-1,	6,	-1,	5,	-1,	-1,	20,	25,	48,	-1,	-1,	-1,	18,	11,	26,	-1,	15,	39,	22,	-1,	30,	-1,	33|
32,	25,	-1,	-1,	-1,	-1,	-1,	30,	7,	-1,	-1,	-1,	-1,	-1,	-1,	-1,	-1,	47,	-1,	8,	-1,	-1,	-1,	26,	-1,	15,	-1,	12,	13,	-1,	43,	-1,	-1,	-1,	-1,	-1,	22,	40,	-1,	-1,	46,	-1,	36,	9,	-1,	-1,	28,	42,	48|
4,	-1,	-1,	-1,	-1,	-1,	44,	31,	-1,	11,	38,	2,	8,	-1,	49,	-1,	34,	-1,	-1,	-1,	7,	-1,	-1,	19,	41,	9,	-1,	29,	-1,	23,	-1,	-1,	45,	-1,	-1,	48,	-1,	-1,	-1,	37,	-1,	-1,	16,	-1,	-1,	20,	-1,	-1,	25|
45,	35,	19,	-1,	-1,	-1,	-1,	18,	-1,	9,	43,	-1,	-1,	-1,	20,	-1,	-1,	-1,	38,	22,	-1,	-1,	-1,	-1,	-1,	-1,	-1,	-1,	-1,	42,	-1,	-1,	21,	-1,	-1,	2,	-1,	32,	8,	-1,	5,	-1,	1,	-1,	23,	-1,	-1,	-1,	10|
-1,	-1,	-1,	4,	-1,	9,	-1,	-1,	39,	-1,	-1,	-1,	-1,	-1,	-1,	-1,	-1,	15,	34,	-1,	10,	-1,	2,	29,	-1,	-1,	-1,	3,	26,	-1,	13,	32,	44,	-1,	-1,	33,	31,	28,	7,	47,	-1,	-1,	17,	-1,	-1,	43,	-1,	-1,	-1|
-1,	-1,	-1,	-1,	-1,	-1,	16,	32,	-1,	-1,	-1,	17,	-1,	-1,	-1,	-1,	40,	31,	-1,	45,	-1,	25,	-1,	-1,	-1,	-1,	22,	-1,	-1,	-1,	39,	5,	-1,	-1,	42,	-1,	-1,	-1,	37,	30,	-1,	27,	-1,	8,	-1,	-1,	12,	-1,	-1|
34,	-1,	45,	-1,	-1,	-1,	-1,	-1,	-1,	-1,	36,	47,	-1,	-1,	8,	-1,	4,	-1,	3,	-1,	-1,	6,	18,	17,	-1,	-1,	39,	31,	10,	25,	9,	-1,	-1,	-1,	22,	-1,	-1,	-1,	35,	-1,	-1,	-1,	49,	-1,	-1,	-1,	-1,	44,	14|
7,	39,	22,	47,	-1,	-1,	-1,	28,	8,	21,	18,	-1,	33,	-1,	43,	-1,	-1,	-1,	-1,	-1,	-1,	-1,	-1,	-1,	-1,	-1,	13,	15,	-1,	46,	31,	30,	-1,	34,	37,	-1,	17,	3,	-1,	-1,	-1,	-1,	45,	-1,	-1,	-1,	5,	-1,	-1|
26,	40,	-1,	-1,	13,	43,	36,	20,	-1,	-1,	-1,	37,	31,	-1,	-1,	-1,	-1,	-1,	-1,	-1,	-1,	-1,	28,	-1,	-1,	-1,	34,	-1,	-1,	2,	21,	47,	-1,	17,	3,	-1,	49,	46,	22,	4,	25,	-1,	48,	-1,	35,	-1,	-1,	-1,	15|
-1,	-1,	-1,	10,	-1,	17,	-1,	-1,	15,	-1,	-1,	3,	45,	25,	37,	-1,	46,	-1,	-1,	14,	-1,	-1,	-1,	-1,	47,	-1,	-1,	32,	-1,	-1,	-1,	28,	24,	18,	-1,	-1,	-1,	39,	5,	-1,	12,	-1,	23,	-1,	31,	-1,	-1,	-1,	-1|
-1,	32,	-1,	-1,	-1,	44,	37,	-1,	-1,	-1,	6,	-1,	11,	-1,	-1,	28,	-1,	25,	-1,	-1,	24,	-1,	41,	-1,	-1,	-1,	-1,	-1,	-1,	-1,	45,	7,	-1,	-1,	-1,	8,	-1,	-1,	-1,	-1,	-1,	-1,	-1,	-1,	-1,	-1,	21,	-1,	36|
-1,	6,	-1,	-1,	48,	25,	29,	-1,	-1,	28,	-1,	8,	-1,	-1,	-1,	-1,	44,	21,	-1,	-1,	-1,	13,	49,	-1,	-1,	42,	23,	2,	9,	24,	-1,	-1,	-1,	30,	-1,	34,	-1,	-1,	-1,	-1,	41,	-1,	-1,	-1,	-1,	14,	-1,	-1,	-1|
10,	49,	31,	-1,	28,	26,	-1,	-1,	-1,	-1,	24,	4,	-1,	-1,	-1,	-1,	-1,	37,	-1,	-1,	5,	-1,	-1,	-1,	-1,	-1,	-1,	-1,	-1,	-1,	48,	34,	23,	-1,	1,	29,	-1,	-1,	3,	-1,	-1,	36,	-1,	-1,	30,	44,	43,	-1,	-1|
-1,	-1,	30,	-1,	-1,	19,	5,	13,	29,	-1,	22,	16,	-1,	46,	42,	-1,	-1,	-1,	-1,	-1,	28,	9,	21,	-1,	12,	39,	-1,	-1,	-1,	-1,	-1,	14,	-1,	49,	-1,	-1,	11,	-1,	47,	-1,	-1,	-1,	-1,	-1,	-1,	23,	-1,	-1,	-1|
23,	22,	-1,	16,	-1,	-1,	11,	40,	14,	-1,	25,	21,	-1,	-1,	9,	2,	-1,	-1,	29,	-1,	-1,	30,	24,	-1,	-1,	-1,	-1,	10,	47,	-1,	-1,	17,	7,	-1,	-1,	-1,	-1,	-1,	-1,	8,	28,	-1,	6,	38,	18,	45,	-1,	-1,	-1|
12,	-1,	44,	9,	38,	-1,	-1,	-1,	6,	-1,	-1,	34,	10,	-1,	26,	23,	-1,	-1,	-1,	-1,	-1,	-1,	-1,	-1,	17,	-1,	45,	-1,	2,	35,	-1,	13,	-1,	39,	32,	27,	-1,	-1,	-1,	-1,	-1,	46,	-1,	21,	29,	-1,	4,	8,	49|
20,	-1,	-1,	-1,	-1,	14,	-1,	-1,	-1,	49,	-1,	-1,	-1,	-1,	-1,	34,	-1,	11,	-1,	-1,	12,	-1,	25,	-1,	-1,	-1,	28,	27,	-1,	22,	-1,	29,	-1,	-1,	-1,	-1,	-1,	-1,	4,	10,	-1,	6,	32,	-1,	17,	-1,	-1,	-1,	13|
-1,	-1,	-1,	18,	46,	-1,	27,	-1,	-1,	45,	23,	41,	36,	-1,	-1,	13,	-1,	-1,	49,	47,	-1,	-1,	26,	-1,	48,	-1,	7,	-1,	-1,	-1,	-1,	-1,	-1,	-1,	-1,	9,	-1,	-1,	39,	42,	33,	-1,	-1,	5,	12,	2,	-1,	-1,	40|
-1,	-1,	43,	-1,	26,	-1,	41,	46,	-1,	17,	5,	32,	-1,	-1,	4,	-1,	-1,	-1,	-1,	-1,	-1,	33,	15,	-1,	49,	-1,	-1,	-1,	25,	40,	-1,	36,	-1,	12,	21,	3,	-1,	19,	-1,	31,	48,	-1,	-1,	23,	-1,	-1,	-1,	-1,	11|
-1,	46,	-1,	-1,	33,	-1,	39,	-1,	11,	26,	-1,	-1,	9,	-1,	1,	30,	-1,	8,	-1,	10,	-1,	-1,	-1,	-1,	-1,	12,	-1,	-1,	-1,	29,	-1,	15,	-1,	7,	-1,	25,	28,	2,	-1,	-1,	-1,	32,	-1,	-1,	-1,	36,	22,	-1,	-1|
42,	5,	8,	2,	-1,	10,	45,	24,	-1,	47,	33,	36,	-1,	-1,	-1,	-1,	16,	-1,	23,	-1,	-1,	-1,	-1,	7,	20,	22,	-1,	-1,	-1,	48,	-1,	-1,	-1,	-1,	-1,	-1,	-1,	-1,	-1,	49,	-1,	14,	18,	-1,	-1,	6,	-1,	13,	17|
-1,	29,	-1,	3,	20,	23,	-1,	27,	-1,	8,	-1,	-1,	-1,	-1,	7,	-1,	-1,	-1,	-1,	31,	13,	36,	-1,	-1,	-1,	35,	43,	39,	45,	-1,	-1,	-1,	-1,	-1,	2,	-1,	-1,	-1,	41,	22,	-1,	-1,	-1,	-1,	-1,	26,	42,	-1,	-1|
36,	-1,	-1,	-1,	19,	30,	12,	-1,	1,	35,	-1,	-1,	-1,	39,	25,	49,	47,	-1,	20,	-1,	9,	-1,	34,	42,	-1,	17,	-1,	-1,	-1,	-1,	-1,	-1,	13,	-1,	-1,	-1,	-1,	16,	-1,	40,	8,	-1,	-1,	-1,	-1,	5,	-1,	7,	29|
-1,	17,	-1,	-1,	-1,	18,	-1,	-1,	3,	40,	-1,	23,	-1,	13,	5,	36,	-1,	-1,	14,	-1,	-1,	-1,	27,	-1,	19,	45,	-1,	-1,	-1,	31,	-1,	-1,	-1,	10,	16,	39,	6,	-1,	38,	46,	-1,	-1,	-1,	-1,	-1,	8,	20,	-1,	47|
24,	-1,	-1,	7,	-1,	11,	-1,	2,	-1,	30,	-1,	-1,	-1,	-1,	-1,	-1,	-1,	-1,	-1,	-1,	26,	10,	40,	-1,	-1,	-1,	29,	-1,	20,	-1,	3,	-1,	-1,	-1,	-1,	-1,	-1,	9,	45,	12,	23,	-1,	-1,	-1,	-1,	16,	-1,	49,	-1|
43,	18,	38,	42,	47,	-1,	-1,	-1,	-1,	-1,	39,	-1,	-1,	32,	-1,	-1,	-1,	45,	9,	-1,	-1,	-1,	-1,	-1,	33,	-1,	-1,	20,	-1,	27,	-1,	-1,	-1,	3,	-1,	11,	35,	25,	-1,	-1,	1,	-1,	29,	41,	-1,	-1,	2,	16,	-1|
30,	-1,	-1,	20,	11,	-1,	-1,	-1,	-1,	12,	-1,	-1,	-1,	16,	28,	-1,	-1,	38,	-1,	-1,	32,	24,	29,	39,	-1,	48,	-1,	19,	43,	-1,	-1,	46,	22,	-1,	-1,	49,	-1,	26,	-1,	34,	-1,	-1,	47,	31,	-1,	37,	10,	-1,	-1|
-1,	-1,	17,	-1,	7,	-1,	34,	41,	-1,	-1,	-1,	-1,	-1,	-1,	-1,	-1,	-1,	-1,	16,	-1,	-1,	-1,	1,	-1,	-1,	-1,	-1,	18,	31,	36,	-1,	21,	-1,	-1,	-1,	-1,	-1,	37,	-1,	-1,	14,	-1,	-1,	-1,	-1,	24,	11,	35,	45|
-1,	-1,	-1,	48,	-1,	24,	-1,	11,	-1,	43,	-1,	5,	-1,	36,	21,	10,	26,	-1,	-1,	19,	-1,	31,	-1,	-1,	-1,	-1,	-1,	41,	-1,	13,	1,	-1,	33,	-1,	-1,	-1,	-1,	-1,	-1,	38,	-1,	16,	-1,	-1,	-1,	-1,	-1,	-1,	-1|
-1,	-1,	10,	1,	-1,	-1,	-1,	26,	-1,	-1,	-1,	9,	-1,	18,	-1,	37,	-1,	17,	-1,	4,	35,	11,	-1,	-1,	-1,	23,	-1,	-1,	-1,	20,	34,	-1,	48,	-1,	-1,	-1,	-1,	6,	43,	-1,	39,	45,	-1,	7,	46,	-1,	-1,	-1,	12|
-1,	-1,	12,	40,	-1,	-1,	23,	-1,	46,	15,	47,	-1,	28,	-1,	-1,	29,	31,	-1,	-1,	-1,	-1,	-1,	43,	-1,	-1,	-1,	-1,	-1,	-1,	-1,	-1,	-1,	-1,	37,	-1,	30,	-1,	42,	-1,	-1,	-1,	-1,	39,	6,	-1,	-1,	-1,	-1,	26|
-1,	16,	46,	-1,	-1,	-1,	-1,	21,	-1,	-1,	-1,	33,	29,	-1,	-1,	12,	-1,	-1,	-1,	-1,	-1,	-1,	-1,	-1,	4,	30,	8,	-1,	5,	17,	-1,	11,	2,	24,	39,	-1,	-1,	10,	-1,	23,	7,	-1,	-1,	28,	-1,	-1,	-1,	-1,	-1|
-1,	3,	-1,	-1,	44,	20,	-1,	23,	36,	-1,	21,	-1,	-1,	43,	-1,	-1,	-1,	10,	-1,	-1,	-1,	15,	-1,	22,	26,	-1,	-1,	-1,	30,	-1,	-1,	12,	6,	-1,	-1,	37,	19,	-1,	-1,	-1,	17,	33,	-1,	11,	-1,	-1,	-1,	-1,	-1|
28,	-1,	-1,	-1,	-1,	4,	-1,	-1,	-1,	-1,	-1,	25,	-1,	-1,	-1,	22,	6,	33,	-1,	-1,	47,	-1,	44,	-1,	-1,	-1,	-1,	-1,	-1,	-1,	-1,	-1,	14,	-1,	11,	15,	43,	-1,	-1,	-1,	-1,	-1,	3,	10,	-1,	48,	8,	-1,	-1|
-1,	8,	-1,	-1,	1,	-1,	-1,	-1,	-1,	34,	32,	-1,	-1,	-1,	23,	-1,	-1,	3,	-1,	-1,	20,	-1,	-1,	-1,	9,	33,	42,	37,	48,	39,	-1,	43,	-1,	36,	45,	22,	-1,	-1,	-1,	-1,	-1,	10,	-1,	-1,	-1,	49,	14,	25,	44|
11,	-1,	-1,	36,	45,	-1,	-1,	48,	35,	3,	19,	-1,	47,	30,	-1,	-1,	-1,	-1,	41,	-1,	-1,	-1,	-1,	2,	14,	-1,	-1,	-1,	-1,	-1,	27,	-1,	-1,	-1,	-1,	-1,	-1,	-1,	21,	13,	-1,	-1,	-1,	15,	-1,	-1,	33,	-1,	-1|
-1,	42,	-1,	17,	22,	-1,	38,	37,	-1,	6,	28,	13,	14,	9,	-1,	48,	-1,	44,	-1,	-1,	-1,	-1,	-1,	11,	24,	-1,	-1,	-1,	21,	26,	-1,	-1,	-1,	-1,	5,	-1,	-1,	-1,	-1,	-1,	32,	-1,	-1,	-1,	-1,	-1,	23,	19,	18|
37,	-1,	-1,	-1,	-1,	6,	-1,	44,	12,	-1,	2,	-1,	-1,	8,	-1,	5,	27,	9,	-1,	-1,	-1,	47,	-1,	32,	43,	3,	-1,	-1,	-1,	-1,	-1,	-1,	-1,	-1,	-1,	20,	14,	-1,	24,	-1,	-1,	26,	-1,	45,	-1,	-1,	-1,	-1,	-1|
46,	-1,	18,	-1,	27,	31,	-1,	-1,	45,	10,	-1,	-1,	39,	24,	40,	16,	-1,	19,	43,	-1,	-1,	-1,	36,	-1,	-1,	-1,	-1,	-1,	-1,	47,	25,	1,	28,	29,	-1,	-1,	-1,	-1,	44,	3,	-1,	-1,	7,	-1,	-1,	38,	9,	37,	-1|];
