sudoku-ls/benchmarks_LEQ/INST_49x49/40/inst49x49_40_70.txt
7
1
-1	30	-1	-1	-1	21	35	3	9	16	-1	43	-1	-1	-1	-1	-1	4	44	41	40	17	32	-1	13	27	-1	11	39	15	-1	-1	46	-1	36	-1	18	-1	-1	14	47	-1	-1	2	-1	-1	-1	-1	34
9	24	26	-1	-1	-1	-1	14	-1	37	46	39	17	11	-1	-1	-1	-1	8	-1	-1	-1	-1	47	15	-1	2	-1	34	-1	41	23	-1	-1	13	-1	42	-1	32	44	36	22	-1	20	-1	-1	-1	-1	-1
2	-1	3	14	10	-1	4	-1	-1	22	-1	-1	-1	-1	-1	-1	36	6	13	-1	19	-1	-1	-1	31	-1	-1	-1	-1	16	30	9	-1	20	-1	43	45	-1	-1	41	-1	15	42	-1	28	-1	18	17	5
15	34	28	-1	17	46	22	-1	20	-1	-1	-1	-1	2	-1	1	-1	-1	-1	-1	-1	14	-1	-1	-1	41	-1	40	6	43	-1	-1	-1	48	-1	38	-1	-1	13	25	-1	7	31	-1	11	-1	-1	-1	-1
-1	-1	-1	32	-1	41	-1	-1	-1	-1	45	-1	-1	-1	11	-1	-1	-1	17	34	-1	35	-1	-1	23	10	9	5	-1	3	-1	-1	-1	-1	-1	46	8	-1	27	33	-1	-1	-1	-1	-1	-1	-1	-1	-1
-1	-1	-1	8	-1	-1	-1	-1	42	-1	41	-1	-1	-1	31	20	33	-1	-1	46	43	-1	38	28	29	-1	19	4	-1	37	-1	-1	5	-1	40	35	-1	-1	10	9	-1	34	-1	-1	39	22	-1	-1	-1
-1	7	48	-1	-1	-1	-1	-1	34	25	-1	-1	-1	5	18	-1	22	-1	10	-1	27	42	-1	-1	-1	20	3	43	-1	45	-1	38	-1	-1	19	-1	39	4	11	-1	-1	-1	21	-1	-1	-1	36	-1	35
-1	2	40	26	-1	37	24	-1	-1	46	-1	35	-1	3	-1	11	-1	13	-1	43	-1	48	-1	-1	22	-1	20	47	-1	-1	-1	6	30	-1	17	-1	-1	-1	23	-1	-1	39	-1	-1	-1	-1	19	-1	8
-1	48	-1	39	-1	-1	-1	-1	10	36	-1	-1	-1	-1	-1	-1	25	-1	-1	-1	-1	4	-1	46	-1	40	-1	-1	15	-1	28	-1	12	-1	9	-1	38	-1	-1	17	21	47	-1	-1	44	-1	-1	-1	-1
21	-1	-1	-1	23	-1	-1	22	-1	1	-1	-1	19	-1	44	39	-1	-1	-1	-1	6	-1	-1	-1	-1	13	25	-1	33	-1	-1	-1	-1	-1	4	-1	-1	43	-1	-1	-1	9	14	-1	-1	-1	-1	-1	31
-1	-1	-1	-1	-1	-1	47	17	-1	-1	14	-1	44	-1	-1	40	19	2	-1	-1	23	3	10	-1	38	-1	37	6	29	-1	-1	24	20	-1	48	-1	-1	27	18	-1	26	-1	-1	-1	22	-1	-1	-1	33
-1	25	29	-1	-1	-1	-1	-1	7	39	-1	-1	5	45	-1	-1	-1	-1	35	-1	-1	-1	23	-1	-1	15	1	-1	-1	38	43	10	-1	-1	-1	-1	22	-1	-1	16	46	-1	36	-1	37	-1	28	42	-1
-1	-1	5	27	-1	-1	-1	31	40	-1	38	2	-1	-1	-1	15	-1	46	26	-1	-1	-1	-1	-1	-1	-1	-1	29	3	23	22	-1	-1	1	47	48	-1	35	-1	-1	-1	-1	-1	-1	-1	20	6	24	-1
45	35	-1	33	-1	7	-1	-1	26	9	-1	-1	-1	47	20	14	29	-1	38	22	17	-1	-1	-1	-1	-1	30	36	37	-1	46	-1	21	-1	-1	-1	-1	-1	8	-1	5	-1	-1	-1	-1	-1	-1	12	10
18	-1	-1	4	12	-1	8	-1	-1	-1	-1	-1	27	-1	-1	-1	-1	-1	34	-1	-1	-1	-1	-1	-1	-1	48	3	-1	-1	-1	32	-1	-1	-1	-1	31	28	7	-1	-1	-1	-1	-1	20	-1	-1	-1	-1
3	-1	-1	-1	2	-1	-1	-1	-1	-1	9	17	-1	-1	13	41	40	-1	-1	-1	-1	-1	-1	-1	36	-1	-1	1	-1	-1	39	-1	49	-1	42	-1	44	-1	-1	-1	29	27	-1	8	-1	-1	-1	-1	-1
34	-1	45	-1	15	-1	46	-1	-1	23	-1	-1	-1	41	-1	-1	-1	5	3	-1	33	-1	-1	-1	37	11	-1	-1	10	-1	9	-1	-1	-1	-1	-1	-1	-1	-1	-1	-1	19	-1	29	26	-1	16	44	-1
-1	-1	-1	47	29	-1	42	28	8	21	-1	40	33	-1	43	-1	-1	-1	-1	-1	-1	-1	-1	-1	-1	-1	-1	15	-1	-1	-1	30	-1	-1	-1	-1	17	-1	-1	20	-1	-1	-1	-1	-1	9	-1	-1	41
-1	40	11	5	-1	-1	36	-1	44	24	16	-1	31	-1	-1	27	-1	-1	30	-1	1	45	28	-1	42	8	-1	14	41	-1	-1	-1	-1	-1	3	18	49	-1	-1	4	-1	-1	48	-1	-1	-1	7	-1	-1
6	19	41	-1	-1	17	-1	4	-1	-1	-1	-1	45	-1	37	44	-1	29	-1	14	22	-1	9	-1	-1	-1	33	-1	-1	1	16	-1	-1	18	-1	-1	-1	-1	-1	-1	-1	-1	23	-1	-1	13	-1	-1	-1
49	-1	33	31	14	-1	-1	29	5	38	6	1	11	-1	47	-1	-1	-1	39	16	-1	-1	41	-1	-1	46	35	-1	-1	-1	-1	7	15	27	-1	-1	9	-1	-1	-1	-1	-1	-1	3	2	10	-1	-1	36
-1	-1	39	45	48	25	29	-1	-1	28	-1	-1	-1	17	-1	-1	44	-1	-1	-1	-1	-1	49	-1	-1	-1	-1	-1	-1	24	-1	-1	37	30	-1	34	-1	-1	16	32	-1	-1	-1	-1	-1	-1	15	-1	-1
-1	-1	-1	-1	-1	26	7	39	-1	-1	-1	4	-1	12	32	-1	-1	-1	22	-1	-1	40	-1	14	-1	47	-1	-1	16	-1	48	34	-1	-1	-1	-1	-1	-1	-1	35	-1	-1	25	-1	-1	44	43	-1	-1
8	36	30	-1	-1	19	-1	-1	-1	32	-1	-1	35	-1	42	-1	-1	-1	-1	25	-1	-1	-1	15	-1	-1	-1	34	38	-1	-1	-1	-1	-1	-1	17	11	45	-1	2	-1	-1	-1	-1	10	23	1	20	7
-1	22	15	16	41	-1	11	-1	-1	-1	-1	-1	3	42	-1	2	43	-1	-1	33	46	-1	24	20	-1	-1	-1	-1	47	-1	-1	17	-1	-1	27	-1	-1	-1	-1	8	28	-1	-1	38	-1	-1	-1	-1	-1
-1	47	-1	-1	-1	42	40	-1	-1	20	-1	34	10	-1	26	23	-1	36	18	-1	15	-1	-1	-1	-1	-1	-1	-1	-1	-1	33	-1	25	39	32	-1	-1	-1	31	24	-1	46	28	21	29	-1	4	-1	-1
-1	-1	-1	-1	-1	-1	-1	-1	-1	-1	-1	-1	37	15	-1	-1	41	-1	-1	-1	12	-1	-1	-1	-1	-1	-1	-1	42	22	-1	29	-1	-1	-1	-1	-1	-1	-1	-1	43	-1	-1	16	17	35	-1	-1	13
17	37	32	-1	46	-1	27	-1	-1	45	-1	-1	36	-1	6	-1	20	-1	-1	47	-1	-1	-1	35	-1	-1	-1	22	44	-1	-1	8	-1	-1	-1	9	-1	14	-1	42	-1	25	-1	5	-1	-1	-1	3	-1
-1	-1	43	-1	26	-1	41	-1	22	-1	5	-1	7	-1	4	-1	28	42	-1	35	-1	33	-1	-1	-1	-1	-1	-1	25	40	-1	-1	-1	-1	21	-1	29	19	34	-1	48	1	-1	-1	45	30	-1	-1	-1
40	-1	-1	49	-1	-1	39	16	-1	-1	-1	-1	-1	-1	1	-1	45	-1	-1	-1	-1	-1	-1	41	-1	-1	-1	23	14	-1	-1	-1	-1	7	-1	25	-1	-1	20	18	13	-1	44	-1	-1	-1	-1	31	-1
-1	-1	-1	-1	34	-1	45	-1	-1	47	33	-1	-1	-1	29	-1	-1	-1	-1	-1	11	32	-1	-1	20	-1	-1	9	1	-1	-1	-1	-1	-1	-1	4	-1	44	-1	-1	27	-1	18	-1	-1	-1	40	13	-1
44	29	4	3	-1	-1	1	27	-1	8	-1	-1	-1	-1	7	-1	48	-1	-1	-1	13	-1	-1	-1	-1	-1	-1	39	-1	-1	-1	-1	47	-1	2	5	24	-1	41	22	15	17	9	-1	-1	-1	42	-1	-1
-1	-1	37	-1	19	-1	-1	45	1	35	44	-1	-1	39	-1	49	47	24	-1	3	-1	28	-1	-1	-1	-1	-1	48	27	6	32	4	-1	46	-1	21	-1	-1	-1	-1	8	43	-1	-1	38	5	41	-1	-1
48	-1	-1	-1	25	-1	21	43	-1	40	29	23	-1	13	-1	-1	12	-1	-1	-1	44	-1	-1	-1	19	-1	-1	30	-1	-1	-1	33	-1	10	16	-1	-1	7	38	-1	-1	42	-1	-1	1	-1	-1	-1	-1
24	-1	-1	-1	-1	-1	-1	-1	-1	30	31	38	42	4	-1	-1	-1	-1	-1	-1	-1	-1	40	-1	25	-1	29	-1	-1	-1	-1	-1	-1	-1	-1	36	47	-1	-1	12	23	-1	-1	-1	14	-1	-1	-1	28
-1	-1	-1	-1	47	-1	-1	34	-1	13	-1	-1	-1	-1	-1	-1	24	45	9	7	36	-1	-1	6	33	37	-1	-1	-1	27	23	-1	-1	-1	-1	11	-1	-1	-1	-1	-1	-1	29	-1	15	-1	-1	-1	4
30	-1	36	20	-1	-1	-1	-1	-1	-1	-1	-1	1	-1	28	8	-1	38	27	23	-1	-1	-1	-1	-1	-1	17	-1	-1	18	42	-1	-1	-1	-1	49	33	-1	15	-1	4	40	47	-1	21	-1	-1	14	3
-1	-1	-1	19	7	-1	34	41	-1	42	40	-1	-1	-1	15	-1	-1	-1	-1	44	-1	46	-1	25	-1	2	-1	-1	31	36	-1	21	4	-1	30	-1	-1	37	-1	29	-1	-1	8	-1	5	-1	-1	-1	-1
29	-1	35	-1	37	-1	-1	11	-1	-1	17	-1	20	-1	21	-1	26	-1	-1	19	-1	-1	3	9	-1	-1	-1	-1	28	-1	1	44	33	-1	-1	47	-1	8	-1	-1	-1	-1	-1	27	-1	18	32	30	23
-1	41	10	-1	8	49	-1	-1	24	-1	3	9	38	18	2	-1	30	17	-1	-1	-1	-1	47	40	-1	-1	15	42	32	-1	-1	-1	48	-1	29	-1	13	-1	43	-1	-1	-1	-1	7	-1	-1	-1	36	-1
5	-1	-1	40	21	-1	-1	8	-1	15	-1	48	28	-1	-1	29	31	20	11	-1	-1	38	-1	-1	-1	-1	16	-1	7	49	14	45	35	-1	-1	-1	-1	42	-1	-1	18	24	39	-1	-1	17	-1	-1	26
-1	16	-1	-1	3	32	-1	21	-1	-1	-1	33	-1	35	-1	12	-1	-1	-1	40	42	26	45	-1	-1	30	8	13	-1	-1	-1	-1	2	-1	-1	-1	-1	-1	36	-1	7	-1	43	-1	-1	1	-1	48	-1
-1	-1	14	-1	-1	-1	49	23	-1	-1	21	27	-1	-1	35	25	7	10	28	-1	-1	-1	48	22	26	31	-1	-1	30	-1	-1	-1	6	-1	38	37	-1	-1	40	39	17	33	-1	11	24	32	47	2	-1
28	-1	7	-1	40	-1	-1	42	17	-1	-1	-1	26	-1	-1	22	-1	33	-1	36	47	23	44	-1	-1	-1	-1	38	-1	-1	-1	-1	14	-1	-1	15	43	-1	29	45	35	49	3	10	-1	-1	-1	21	-1
-1	-1	-1	35	-1	29	26	-1	38	-1	32	18	-1	31	23	-1	-1	-1	-1	-1	20	27	13	-1	-1	-1	42	-1	-1	-1	-1	43	-1	-1	45	-1	2	47	46	28	-1	10	-1	17	40	-1	-1	-1	44
-1	-1	-1	36	-1	-1	10	48	-1	-1	-1	-1	47	-1	-1	-1	37	-1	-1	-1	-1	1	39	-1	-1	25	-1	-1	4	34	27	-1	-1	-1	-1	31	16	-1	21	13	-1	-1	-1	-1	6	-1	-1	-1	-1
-1	-1	-1	-1	22	39	-1	37	-1	6	-1	-1	-1	9	-1	-1	-1	-1	-1	-1	-1	34	35	-1	24	29	10	7	-1	-1	-1	20	-1	-1	-1	-1	1	-1	-1	27	-1	-1	4	30	43	31	23	19	-1
37	23	-1	-1	-1	-1	-1	-1	12	4	-1	-1	-1	8	-1	5	-1	9	-1	-1	-1	-1	19	-1	-1	-1	-1	-1	-1	-1	-1	31	17	-1	-1	-1	-1	-1	24	-1	-1	26	41	-1	-1	-1	-1	-1	-1
-1	-1	-1	-1	-1	-1	-1	33	-1	-1	49	-1	-1	24	-1	16	32	-1	-1	-1	-1	-1	-1	5	8	-1	41	-1	23	47	-1	-1	28	-1	-1	-1	-1	34	-1	-1	30	-1	7	-1	-1	-1	9	-1	-1
49 
6 3 11 1
39 39 7 42
4 46 18 38
45 16 16 48
43 38 42 29
15 35 30 12
45 31 1 46
9 28 23 17
34 3 42 45
19 14 23 1
11 40 38 47
26 1 13 37
6 43 37 6
45 47 5 34
16 38 30 32
24 12 2 26
19 34 15 43
4 10 6 29
22 45 18 29
35 29 27 1
25 12 3 9
48 12 5 23
23 33 1 4
6 47 37 22
48 4 39 7
21 28 31 31
40 1 10 32
13 20 48 28
5 42 10 12
11 47 20 11
29 40 32 20
48 24 3 16
3 46 16 30
40 31 12 25
18 17 10 28
17 11 20 37
21 7 34 31
8 43 26 5
35 17 14 22
36 32 46 27
31 18 15 42
1 17 22 26
41 23 35 35
26 3 27 24
16 20 13 33
32 19 43 13
38 16 30 27
3 38 20 19
36 9 35 48
